StringID   Type       x          y          demand     ReadyTime  DueDate    ServiceTime
D0         d              95.913    52.162      0.000      0.000     23.983      0.000
S0         f              95.913    52.162      0.000      0.000     23.983      0.000
S1         f              34.810    41.160      0.000      0.000     23.983      0.000
S2         f               1.110    67.580      0.000      0.000     23.983      0.000
C0         c              18.249    21.685      0.035     12.889     15.632      0.150
C1         c              12.646    82.516      0.093     17.061     19.813      0.067
C2         c              12.288    89.020      0.086     17.023     20.323      0.050
C3         c              11.829    84.358      0.016     14.240     17.172      0.033
C4         c              32.322    85.923      0.073     16.116     19.223      0.017

Q Vehicle fuel tank capacity /111.3800/
C Vehicle load capacity /1.1700/
r fuel consumption rate /0.4408/
g inverse refueling rate /0.0076/
v average Velocity /41.9900/
gv charging speed /131.9600/

--------------------
instance_id /444/
number of clusters /7/
working_startTime (hour) /8.00/
working_endTime (hour) /21.53/
instance_endTime (hour) /23.98/
service_time_type /random/
demand_type /random/
instance_type /C/
instance x range /[0.0, 100.0]/
instance y range /[0.0, 100.0]/
cs_time_to_depot (hour)/[1.478580400705301,2.287414808103103]/
